\ Model qkp
\ LP format - for model browsing. Use MPS format to capture full model detail.
Maximize
  32 x_1 + 11 x_3 + 4 x_4 + 27 x_6 + 12 x_7 + 12 x_8 + 15 x_10 + 24 x_11
   + 32 x_12 + 4 x_13 + 24 x_14 + 19 x_15 + 19 x_19 + 29 x_21 + 39 x_22
   + 23 x_24 + 25 x_25 + 18 x_27 + 41 x_28 + 17 x_30 + 4 x_32 + 32 x_33
   + 48 x_34 + 19 x_35 + 46 x_36 + 43 x_37 + 5 x_38 + x_40 + 40 x_44
   + 6 x_45 + 2 x_47 + 8 x_48 + 33 x_49 + 21 x_50 + [ 56 x_1 * x_3
   + 8 x_1 * x_4 + 132 x_1 * x_5 + 172 x_1 * x_6 + 104 x_1 * x_8
   + 176 x_1 * x_9 + 132 x_1 * x_10 + 44 x_1 * x_11 + 176 x_1 * x_12
   + 140 x_1 * x_13 + 140 x_1 * x_14 + 20 x_1 * x_15 + 160 x_1 * x_16
   + 64 x_1 * x_18 + 84 x_1 * x_19 + 16 x_1 * x_20 + 56 x_1 * x_21
   + 160 x_1 * x_22 + 164 x_1 * x_24 + 96 x_1 * x_25 + 36 x_1 * x_27
   + 40 x_1 * x_28 + 144 x_1 * x_29 + 48 x_1 * x_30 + 28 x_1 * x_31
   + 12 x_1 * x_34 + 132 x_1 * x_35 + 108 x_1 * x_37 + 164 x_1 * x_40
   + 124 x_1 * x_41 + 200 x_1 * x_42 + 156 x_1 * x_43 + 172 x_1 * x_44
   + 96 x_1 * x_45 + 160 x_1 * x_47 + 144 x_1 * x_49 + 76 x_1 * x_50
   + 80 x_2 * x_3 + 116 x_2 * x_4 + 108 x_2 * x_8 + 196 x_2 * x_9
   + 148 x_2 * x_10 + 68 x_2 * x_13 + 200 x_2 * x_15 + 164 x_2 * x_16
   + 160 x_2 * x_17 + 144 x_2 * x_18 + 28 x_2 * x_19 + 136 x_2 * x_20
   + 120 x_2 * x_21 + 12 x_2 * x_22 + 84 x_2 * x_24 + 188 x_2 * x_25
   + 40 x_2 * x_28 + 36 x_2 * x_29 + 96 x_2 * x_30 + 32 x_2 * x_31
   + 148 x_2 * x_33 + 108 x_2 * x_34 + 164 x_2 * x_35 + 172 x_2 * x_36
   + 72 x_2 * x_37 + 136 x_2 * x_38 + 20 x_2 * x_39 + 76 x_2 * x_40
   + 72 x_2 * x_41 + 116 x_2 * x_42 + 156 x_2 * x_43 + 4 x_2 * x_44
   + 12 x_2 * x_45 + 100 x_2 * x_46 + 132 x_2 * x_49 + 140 x_2 * x_50
   + 32 x_3 * x_4 + 144 x_3 * x_5 + 64 x_3 * x_6 + 160 x_3 * x_7
   + 40 x_3 * x_9 + 20 x_3 * x_10 + 64 x_3 * x_11 + 68 x_3 * x_12
   + 148 x_3 * x_13 + 92 x_3 * x_14 + 28 x_3 * x_15 + 148 x_3 * x_16
   + 136 x_3 * x_19 + 60 x_3 * x_21 + 176 x_3 * x_23 + 152 x_3 * x_26
   + 20 x_3 * x_28 + 36 x_3 * x_29 + 28 x_3 * x_30 + 44 x_3 * x_31
   + 36 x_3 * x_32 + 112 x_3 * x_33 + 88 x_3 * x_34 + 32 x_3 * x_35
   + 104 x_3 * x_36 + 52 x_3 * x_37 + 164 x_3 * x_38 + 144 x_3 * x_40
   + 200 x_3 * x_42 + 80 x_3 * x_44 + 176 x_3 * x_45 + 160 x_3 * x_46
   + 152 x_3 * x_47 + 140 x_3 * x_48 + 156 x_3 * x_49 + 184 x_3 * x_50
   + 52 x_4 * x_5 + 128 x_4 * x_7 + 132 x_4 * x_8 + 44 x_4 * x_9
   + 164 x_4 * x_10 + 52 x_4 * x_11 + 12 x_4 * x_12 + 68 x_4 * x_14
   + 120 x_4 * x_15 + 20 x_4 * x_16 + 156 x_4 * x_17 + 16 x_4 * x_18
   + 64 x_4 * x_19 + 132 x_4 * x_21 + 124 x_4 * x_23 + 88 x_4 * x_24
   + 176 x_4 * x_25 + 16 x_4 * x_26 + 180 x_4 * x_27 + 192 x_4 * x_29
   + 96 x_4 * x_30 + 156 x_4 * x_31 + 28 x_4 * x_32 + 192 x_4 * x_34
   + 4 x_4 * x_35 + 68 x_4 * x_39 + 132 x_4 * x_41 + 20 x_4 * x_42
   + 52 x_4 * x_43 + 88 x_4 * x_45 + 60 x_4 * x_46 + 56 x_4 * x_47
   + 124 x_4 * x_48 + 176 x_4 * x_49 + 108 x_4 * x_50 + 160 x_5 * x_6
   + 100 x_5 * x_7 + 16 x_5 * x_8 + 96 x_5 * x_11 + 80 x_5 * x_12
   + 88 x_5 * x_13 + 164 x_5 * x_14 + 80 x_5 * x_16 + 160 x_5 * x_17
   + 84 x_5 * x_18 + 76 x_5 * x_19 + 20 x_5 * x_20 + 92 x_5 * x_21
   + 196 x_5 * x_23 + 152 x_5 * x_24 + 56 x_5 * x_26 + 128 x_5 * x_29
   + 176 x_5 * x_31 + 44 x_5 * x_32 + 68 x_5 * x_33 + 200 x_5 * x_34
   + 132 x_5 * x_36 + 160 x_5 * x_37 + 32 x_5 * x_38 + 12 x_5 * x_39
   + 196 x_5 * x_40 + 132 x_5 * x_41 + 68 x_5 * x_42 + 64 x_5 * x_44
   + 36 x_5 * x_45 + 100 x_5 * x_46 + 180 x_5 * x_47 + 64 x_5 * x_48
   + 84 x_5 * x_49 + 124 x_5 * x_50 + 4 x_6 * x_7 + 200 x_6 * x_8
   + 48 x_6 * x_9 + 88 x_6 * x_11 + 52 x_6 * x_12 + 40 x_6 * x_13
   + 4 x_6 * x_14 + 56 x_6 * x_15 + 84 x_6 * x_16 + 44 x_6 * x_18
   + 160 x_6 * x_19 + 8 x_6 * x_20 + 100 x_6 * x_22 + 76 x_6 * x_23
   + 20 x_6 * x_24 + 92 x_6 * x_26 + 8 x_6 * x_29 + 40 x_6 * x_30
   + 16 x_6 * x_34 + 152 x_6 * x_35 + 40 x_6 * x_36 + 200 x_6 * x_37
   + 140 x_6 * x_38 + 40 x_6 * x_39 + 168 x_6 * x_40 + 24 x_6 * x_41
   + 12 x_6 * x_46 + 116 x_6 * x_47 + 8 x_6 * x_48 + 148 x_6 * x_49
   + 96 x_6 * x_50 + 20 x_7 * x_8 + 144 x_7 * x_9 + 136 x_7 * x_10
   + 116 x_7 * x_11 + 88 x_7 * x_12 + 140 x_7 * x_13 + 136 x_7 * x_14
   + 68 x_7 * x_15 + 8 x_7 * x_16 + 96 x_7 * x_18 + 124 x_7 * x_19
   + 176 x_7 * x_20 + 72 x_7 * x_21 + 24 x_7 * x_22 + 48 x_7 * x_23
   + 132 x_7 * x_24 + 192 x_7 * x_25 + 132 x_7 * x_28 + 80 x_7 * x_29
   + 140 x_7 * x_30 + 96 x_7 * x_31 + 124 x_7 * x_32 + 128 x_7 * x_33
   + 4 x_7 * x_34 + 4 x_7 * x_36 + 20 x_7 * x_37 + 108 x_7 * x_39
   + 44 x_7 * x_40 + 152 x_7 * x_42 + 152 x_7 * x_43 + 100 x_7 * x_44
   + 4 x_7 * x_46 + 104 x_7 * x_47 + 132 x_7 * x_48 + 28 x_7 * x_50
   + 32 x_8 * x_9 + 116 x_8 * x_10 + 68 x_8 * x_12 + 136 x_8 * x_13
   + 64 x_8 * x_14 + 12 x_8 * x_18 + 8 x_8 * x_19 + 132 x_8 * x_20
   + 24 x_8 * x_21 + 60 x_8 * x_23 + 172 x_8 * x_25 + 88 x_8 * x_26
   + 84 x_8 * x_27 + 32 x_8 * x_28 + 184 x_8 * x_29 + 12 x_8 * x_32
   + 144 x_8 * x_33 + 48 x_8 * x_34 + 164 x_8 * x_35 + 24 x_8 * x_36
   + 112 x_8 * x_37 + 172 x_8 * x_38 + 80 x_8 * x_39 + 32 x_8 * x_40
   + 16 x_8 * x_41 + 112 x_8 * x_42 + 56 x_8 * x_43 + 152 x_8 * x_45
   + 8 x_8 * x_47 + 8 x_8 * x_49 + 52 x_8 * x_50 + 92 x_9 * x_10
   + 196 x_9 * x_11 + 24 x_9 * x_13 + 68 x_9 * x_14 + 60 x_9 * x_15
   + 160 x_9 * x_16 + 16 x_9 * x_17 + 140 x_9 * x_18 + 128 x_9 * x_19
   + 12 x_9 * x_20 + 168 x_9 * x_22 + 196 x_9 * x_23 + 44 x_9 * x_24
   + 160 x_9 * x_25 + 64 x_9 * x_26 + 44 x_9 * x_27 + 8 x_9 * x_28
   + 124 x_9 * x_29 + 40 x_9 * x_32 + 96 x_9 * x_35 + 140 x_9 * x_36
   + 116 x_9 * x_37 + 184 x_9 * x_39 + 140 x_9 * x_41 + 120 x_9 * x_42
   + 152 x_9 * x_43 + 52 x_9 * x_45 + 12 x_9 * x_46 + 60 x_9 * x_47
   + 60 x_9 * x_48 + 100 x_9 * x_50 + 24 x_10 * x_12 + 112 x_10 * x_13
   + 8 x_10 * x_15 + 132 x_10 * x_16 + 60 x_10 * x_17 + 200 x_10 * x_18
   + 4 x_10 * x_19 + 52 x_10 * x_21 + 196 x_10 * x_22 + 180 x_10 * x_25
   + 104 x_10 * x_26 + 56 x_10 * x_27 + 188 x_10 * x_28 + 124 x_10 * x_29
   + 84 x_10 * x_30 + 88 x_10 * x_31 + 24 x_10 * x_32 + 116 x_10 * x_33
   + 52 x_10 * x_34 + 116 x_10 * x_35 + 112 x_10 * x_36 + 12 x_10 * x_37
   + 164 x_10 * x_38 + 96 x_10 * x_39 + 48 x_10 * x_40 + 104 x_10 * x_41
   + 60 x_10 * x_43 + 44 x_10 * x_45 + 116 x_10 * x_46 + 200 x_10 * x_47
   + 148 x_10 * x_48 + 76 x_10 * x_49 + 116 x_10 * x_50 + 172 x_11 * x_14
   + 76 x_11 * x_15 + 12 x_11 * x_17 + 128 x_11 * x_18 + 172 x_11 * x_19
   + 116 x_11 * x_20 + 32 x_11 * x_22 + 60 x_11 * x_23 + 140 x_11 * x_24
   + 76 x_11 * x_25 + 60 x_11 * x_27 + 148 x_11 * x_28 + 24 x_11 * x_29
   + 40 x_11 * x_30 + 116 x_11 * x_31 + 40 x_11 * x_32 + 136 x_11 * x_33
   + 4 x_11 * x_35 + 36 x_11 * x_36 + 176 x_11 * x_37 + 184 x_11 * x_38
   + 116 x_11 * x_39 + 160 x_11 * x_40 + 164 x_11 * x_41 + 188 x_11 * x_42
   + 28 x_11 * x_43 + 96 x_11 * x_44 + 176 x_11 * x_45 + 16 x_11 * x_47
   + 164 x_11 * x_48 + 176 x_11 * x_50 + 176 x_12 * x_13 + 72 x_12 * x_14
   + 64 x_12 * x_15 + 200 x_12 * x_16 + 184 x_12 * x_18 + 88 x_12 * x_19
   + 80 x_12 * x_20 + 172 x_12 * x_21 + 20 x_12 * x_23 + 40 x_12 * x_25
   + 100 x_12 * x_26 + 112 x_12 * x_27 + 200 x_12 * x_28 + 88 x_12 * x_29
   + 76 x_12 * x_30 + 64 x_12 * x_31 + 100 x_12 * x_32 + 64 x_12 * x_33
   + 12 x_12 * x_34 + 144 x_12 * x_36 + 24 x_12 * x_37 + 188 x_12 * x_38
   + 84 x_12 * x_41 + 4 x_12 * x_43 + 148 x_12 * x_44 + 168 x_12 * x_45
   + 80 x_12 * x_46 + 200 x_12 * x_47 + 8 x_12 * x_48 + 128 x_12 * x_49
   + 12 x_12 * x_50 + 196 x_13 * x_16 + 28 x_13 * x_17 + 96 x_13 * x_18
   + 36 x_13 * x_19 + 88 x_13 * x_20 + 12 x_13 * x_21 + 152 x_13 * x_22
   + 88 x_13 * x_23 + 44 x_13 * x_26 + 12 x_13 * x_27 + 108 x_13 * x_29
   + 56 x_13 * x_30 + 152 x_13 * x_31 + 124 x_13 * x_32 + 188 x_13 * x_33
   + 88 x_13 * x_35 + 88 x_13 * x_36 + 84 x_13 * x_37 + 156 x_13 * x_41
   + 136 x_13 * x_42 + 24 x_13 * x_43 + 84 x_13 * x_46 + 124 x_13 * x_47
   + 72 x_13 * x_48 + 164 x_13 * x_49 + 172 x_13 * x_50 + 100 x_14 * x_15
   + 4 x_14 * x_16 + 24 x_14 * x_17 + 172 x_14 * x_20 + 16 x_14 * x_21
   + 40 x_14 * x_22 + 100 x_14 * x_23 + 160 x_14 * x_25 + 48 x_14 * x_26
   + 168 x_14 * x_27 + 32 x_14 * x_28 + 188 x_14 * x_29 + 64 x_14 * x_30
   + 100 x_14 * x_33 + 72 x_14 * x_34 + 12 x_14 * x_35 + 168 x_14 * x_36
   + 120 x_14 * x_38 + 160 x_14 * x_39 + 20 x_14 * x_40 + 68 x_14 * x_41
   + 156 x_14 * x_43 + 36 x_14 * x_44 + 124 x_14 * x_46 + 100 x_14 * x_47
   + 92 x_14 * x_48 + 200 x_14 * x_49 + 48 x_15 * x_16 + 192 x_15 * x_17
   + 84 x_15 * x_20 + 164 x_15 * x_22 + 80 x_15 * x_23 + 148 x_15 * x_24
   + 36 x_15 * x_26 + 76 x_15 * x_27 + 36 x_15 * x_28 + 116 x_15 * x_29
   + 168 x_15 * x_30 + 48 x_15 * x_32 + 52 x_15 * x_33 + 120 x_15 * x_34
   + 92 x_15 * x_35 + 36 x_15 * x_36 + 180 x_15 * x_37 + 24 x_15 * x_38
   + 128 x_15 * x_40 + 152 x_15 * x_41 + 172 x_15 * x_43 + 96 x_15 * x_44
   + 92 x_15 * x_46 + 136 x_15 * x_47 + 72 x_15 * x_48 + 56 x_15 * x_49
   + 148 x_15 * x_50 + 164 x_16 * x_17 + 4 x_16 * x_18 + 92 x_16 * x_19
   + 80 x_16 * x_20 + 92 x_16 * x_25 + 200 x_16 * x_26 + 172 x_16 * x_27
   + 168 x_16 * x_29 + 176 x_16 * x_30 + 124 x_16 * x_31 + 28 x_16 * x_32
   + 180 x_16 * x_33 + 188 x_16 * x_34 + 180 x_16 * x_35 + 44 x_16 * x_37
   + 56 x_16 * x_38 + 176 x_16 * x_40 + 164 x_16 * x_42 + 28 x_16 * x_43
   + 76 x_16 * x_44 + 120 x_16 * x_45 + 112 x_16 * x_47 + 36 x_16 * x_48
   + 160 x_16 * x_49 + 56 x_16 * x_50 + 24 x_17 * x_18 + 132 x_17 * x_19
   + 76 x_17 * x_21 + 56 x_17 * x_22 + 196 x_17 * x_23 + 192 x_17 * x_24
   + 188 x_17 * x_25 + 192 x_17 * x_27 + 140 x_17 * x_31 + 168 x_17 * x_32
   + 60 x_17 * x_33 + 72 x_17 * x_34 + 52 x_17 * x_35 + 200 x_17 * x_36
   + 144 x_17 * x_37 + 152 x_17 * x_38 + 60 x_17 * x_39 + 108 x_17 * x_40
   + 200 x_17 * x_41 + 92 x_17 * x_42 + 136 x_17 * x_44 + 96 x_17 * x_45
   + 136 x_17 * x_47 + 36 x_17 * x_49 + 156 x_17 * x_50 + 192 x_18 * x_20
   + 36 x_18 * x_21 + 12 x_18 * x_22 + 116 x_18 * x_23 + 176 x_18 * x_24
   + 196 x_18 * x_25 + 48 x_18 * x_27 + 196 x_18 * x_28 + 56 x_18 * x_29
   + 16 x_18 * x_30 + 40 x_18 * x_31 + 96 x_18 * x_32 + 84 x_18 * x_33
   + 4 x_18 * x_35 + 128 x_18 * x_37 + 160 x_18 * x_38 + 12 x_18 * x_40
   + 28 x_18 * x_41 + 140 x_18 * x_43 + 148 x_18 * x_44 + 40 x_18 * x_45
   + 28 x_18 * x_46 + 192 x_18 * x_48 + 144 x_18 * x_49 + 12 x_19 * x_20
   + 180 x_19 * x_22 + 100 x_19 * x_24 + 200 x_19 * x_26 + 108 x_19 * x_28
   + 192 x_19 * x_30 + 192 x_19 * x_31 + 104 x_19 * x_32 + 140 x_19 * x_33
   + 108 x_19 * x_37 + 120 x_19 * x_38 + 124 x_19 * x_39 + 112 x_19 * x_40
   + 184 x_19 * x_41 + 184 x_19 * x_43 + 68 x_19 * x_44 + 20 x_19 * x_45
   + 12 x_19 * x_48 + 12 x_19 * x_49 + 180 x_20 * x_21 + 8 x_20 * x_22
   + 188 x_20 * x_24 + 148 x_20 * x_25 + 176 x_20 * x_26 + 112 x_20 * x_27
   + 184 x_20 * x_28 + 72 x_20 * x_30 + 152 x_20 * x_31 + 32 x_20 * x_32
   + 124 x_20 * x_34 + 28 x_20 * x_35 + 32 x_20 * x_36 + 116 x_20 * x_37
   + 76 x_20 * x_39 + 96 x_20 * x_40 + 4 x_20 * x_44 + 184 x_20 * x_46
   + 16 x_20 * x_47 + 28 x_20 * x_49 + 200 x_20 * x_50 + 104 x_21 * x_23
   + 136 x_21 * x_24 + 164 x_21 * x_25 + 168 x_21 * x_26 + 4 x_21 * x_27
   + 72 x_21 * x_30 + 20 x_21 * x_31 + 64 x_21 * x_32 + 184 x_21 * x_33
   + 132 x_21 * x_34 + 32 x_21 * x_35 + 92 x_21 * x_36 + 148 x_21 * x_37
   + 156 x_21 * x_38 + 72 x_21 * x_40 + 88 x_21 * x_41 + 8 x_21 * x_43
   + 112 x_21 * x_45 + 4 x_21 * x_47 + 80 x_21 * x_48 + 92 x_21 * x_49
   + 128 x_21 * x_50 + 144 x_22 * x_23 + 84 x_22 * x_24 + 48 x_22 * x_25
   + 56 x_22 * x_26 + 196 x_22 * x_27 + 88 x_22 * x_28 + 84 x_22 * x_29
   + 120 x_22 * x_30 + 72 x_22 * x_31 + 40 x_22 * x_33 + 96 x_22 * x_34
   + 4 x_22 * x_36 + 104 x_22 * x_38 + 192 x_22 * x_39 + 200 x_22 * x_40
   + 40 x_22 * x_42 + 200 x_22 * x_43 + 140 x_22 * x_45 + 160 x_22 * x_46
   + 64 x_22 * x_47 + 12 x_22 * x_48 + 76 x_22 * x_49 + 84 x_22 * x_50
   + 160 x_23 * x_24 + 20 x_23 * x_25 + 68 x_23 * x_26 + 64 x_23 * x_28
   + 104 x_23 * x_29 + 120 x_23 * x_31 + 16 x_23 * x_32 + 124 x_23 * x_33
   + 172 x_23 * x_34 + 76 x_23 * x_35 + 192 x_23 * x_37 + 60 x_23 * x_38
   + 40 x_23 * x_39 + 96 x_23 * x_40 + 64 x_23 * x_41 + 100 x_23 * x_42
   + 200 x_23 * x_44 + 96 x_23 * x_46 + 184 x_23 * x_47 + 72 x_23 * x_48
   + 56 x_23 * x_49 + 56 x_23 * x_50 + 8 x_24 * x_25 + 52 x_24 * x_26
   + 72 x_24 * x_29 + 100 x_24 * x_30 + 40 x_24 * x_31 + 76 x_24 * x_32
   + 40 x_24 * x_33 + 156 x_24 * x_34 + 148 x_24 * x_35 + 108 x_24 * x_36
   + 40 x_24 * x_37 + 148 x_24 * x_39 + 140 x_24 * x_42 + 92 x_24 * x_43
   + 36 x_24 * x_45 + 56 x_24 * x_49 + 164 x_24 * x_50 + 184 x_25 * x_27
   + 88 x_25 * x_29 + 24 x_25 * x_30 + 40 x_25 * x_32 + 44 x_25 * x_34
   + 36 x_25 * x_35 + 136 x_25 * x_36 + 16 x_25 * x_37 + 156 x_25 * x_38
   + 80 x_25 * x_39 + 156 x_25 * x_40 + 24 x_25 * x_41 + 40 x_25 * x_42
   + 84 x_25 * x_43 + 44 x_25 * x_44 + 132 x_25 * x_45 + 120 x_25 * x_46
   + 28 x_25 * x_47 + 172 x_25 * x_48 + 104 x_25 * x_49 + 188 x_26 * x_27
   + 60 x_26 * x_28 + 68 x_26 * x_30 + 116 x_26 * x_32 + 164 x_26 * x_33
   + 24 x_26 * x_34 + 196 x_26 * x_36 + 120 x_26 * x_37 + 20 x_26 * x_38
   + 24 x_26 * x_40 + 24 x_26 * x_43 + 100 x_26 * x_44 + 80 x_26 * x_45
   + 116 x_26 * x_46 + 192 x_26 * x_48 + 76 x_26 * x_49 + 156 x_27 * x_28
   + 104 x_27 * x_29 + 8 x_27 * x_30 + 4 x_27 * x_31 + 184 x_27 * x_32
   + 96 x_27 * x_33 + 76 x_27 * x_35 + 92 x_27 * x_36 + 104 x_27 * x_38
   + 88 x_27 * x_40 + 88 x_27 * x_41 + 40 x_27 * x_42 + 104 x_27 * x_44
   + 172 x_27 * x_46 + 4 x_27 * x_47 + 76 x_27 * x_49 + 176 x_28 * x_29
   + 144 x_28 * x_30 + 144 x_28 * x_31 + 80 x_28 * x_34 + 76 x_28 * x_35
   + 156 x_28 * x_36 + 64 x_28 * x_37 + 196 x_28 * x_39 + 144 x_28 * x_40
   + 68 x_28 * x_41 + 104 x_28 * x_42 + 152 x_28 * x_43 + 160 x_28 * x_44
   + 36 x_28 * x_45 + 120 x_28 * x_46 + 148 x_28 * x_47 + 68 x_28 * x_48
   + 4 x_28 * x_50 + 88 x_29 * x_30 + 20 x_29 * x_31 + 128 x_29 * x_33
   + 28 x_29 * x_34 + 168 x_29 * x_37 + 196 x_29 * x_38 + 168 x_29 * x_40
   + 60 x_29 * x_41 + 88 x_29 * x_42 + 56 x_29 * x_45 + 176 x_29 * x_47
   + 104 x_29 * x_48 + 44 x_30 * x_31 + 92 x_30 * x_32 + 36 x_30 * x_33
   + 156 x_30 * x_34 + 180 x_30 * x_35 + 108 x_30 * x_36 + 152 x_30 * x_38
   + 156 x_30 * x_39 + 156 x_30 * x_40 + 152 x_30 * x_41 + 56 x_30 * x_42
   + 4 x_30 * x_43 + 72 x_30 * x_44 + 176 x_30 * x_45 + 112 x_30 * x_46
   + 40 x_30 * x_47 + 140 x_30 * x_48 + 192 x_30 * x_50 + 36 x_31 * x_32
   + 132 x_31 * x_33 + 192 x_31 * x_34 + 164 x_31 * x_35 + 72 x_31 * x_36
   + 64 x_31 * x_37 + 92 x_31 * x_41 + 96 x_31 * x_42 + 80 x_31 * x_44
   + 136 x_31 * x_45 + 4 x_32 * x_33 + 44 x_32 * x_34 + 92 x_32 * x_35
   + 160 x_32 * x_38 + 84 x_32 * x_39 + 112 x_32 * x_43 + 160 x_32 * x_44
   + 148 x_32 * x_45 + 16 x_32 * x_46 + 180 x_32 * x_47 + 44 x_32 * x_48
   + 136 x_32 * x_49 + 4 x_32 * x_50 + 200 x_33 * x_34 + 168 x_33 * x_36
   + 16 x_33 * x_38 + 180 x_33 * x_39 + 156 x_33 * x_40 + 44 x_33 * x_42
   + 132 x_33 * x_44 + 140 x_33 * x_45 + 92 x_33 * x_46 + 68 x_33 * x_47
   + 156 x_33 * x_48 + 200 x_33 * x_49 + 28 x_33 * x_50 + 184 x_34 * x_36
   + 196 x_34 * x_37 + 20 x_34 * x_38 + 112 x_34 * x_39 + 184 x_34 * x_40
   + 164 x_34 * x_41 + 192 x_34 * x_42 + 20 x_34 * x_44 + 116 x_34 * x_45
   + 88 x_34 * x_46 + 180 x_34 * x_47 + 188 x_34 * x_48 + 152 x_34 * x_50
   + 28 x_35 * x_36 + 64 x_35 * x_37 + 140 x_35 * x_38 + 88 x_35 * x_40
   + 200 x_35 * x_41 + 196 x_35 * x_44 + 164 x_35 * x_45 + 168 x_35 * x_46
   + 192 x_35 * x_47 + 76 x_35 * x_48 + 80 x_35 * x_49 + 80 x_35 * x_50
   + 56 x_36 * x_37 + 172 x_36 * x_38 + 28 x_36 * x_39 + 124 x_36 * x_41
   + 52 x_36 * x_42 + 60 x_36 * x_43 + 168 x_36 * x_44 + 200 x_36 * x_45
   + 132 x_36 * x_48 + 148 x_36 * x_49 + 168 x_36 * x_50 + 156 x_37 * x_38
   + 92 x_37 * x_39 + 120 x_37 * x_40 + 100 x_37 * x_41 + 128 x_37 * x_42
   + 172 x_37 * x_43 + 144 x_37 * x_44 + 156 x_37 * x_45 + 144 x_37 * x_46
   + 136 x_37 * x_48 + 96 x_37 * x_49 + 84 x_37 * x_50 + 92 x_38 * x_39
   + 24 x_38 * x_40 + 44 x_38 * x_41 + 124 x_38 * x_43 + 12 x_38 * x_44
   + 68 x_38 * x_47 + 164 x_38 * x_48 + 112 x_38 * x_49 + 164 x_38 * x_50
   + 4 x_39 * x_40 + 176 x_39 * x_41 + 164 x_39 * x_42 + 96 x_39 * x_44
   + 124 x_39 * x_46 + 200 x_39 * x_47 + 172 x_39 * x_49 + 80 x_39 * x_50
   + 196 x_40 * x_41 + 44 x_40 * x_42 + 40 x_40 * x_43 + 156 x_40 * x_44
   + 184 x_40 * x_45 + 176 x_40 * x_46 + 52 x_40 * x_47 + 108 x_40 * x_48
   + 68 x_40 * x_49 + 188 x_41 * x_42 + 20 x_41 * x_43 + 8 x_41 * x_45
   + 56 x_41 * x_46 + 132 x_41 * x_47 + 24 x_41 * x_49 + 12 x_41 * x_50
   + 24 x_42 * x_43 + 60 x_42 * x_44 + 56 x_42 * x_45 + 84 x_42 * x_46
   + 20 x_42 * x_47 + 100 x_42 * x_48 + 88 x_42 * x_50 + 160 x_43 * x_45
   + 100 x_43 * x_47 + 40 x_43 * x_48 + 156 x_43 * x_49 + 64 x_44 * x_45
   + 60 x_44 * x_46 + 180 x_44 * x_47 + 60 x_44 * x_48 + 8 x_44 * x_49
   + 172 x_45 * x_46 + 60 x_45 * x_47 + 124 x_45 * x_48 + 164 x_46 * x_47
   + 200 x_46 * x_48 + 136 x_47 * x_48 + 92 x_47 * x_49 + 140 x_47 * x_50
   + 156 x_48 * x_49 + 200 x_49 * x_50 ] / 2 
Subject To
 R0: 16 x_1 + 13 x_2 + 12 x_3 + 23 x_4 + 10 x_5 + 10 x_6 + 20 x_7 + 25 x_8
   + 23 x_9 + 15 x_10 + 17 x_11 + x_12 + 22 x_13 + x_14 + 5 x_15 + 21 x_16
   + 23 x_17 + 8 x_18 + 23 x_19 + 16 x_20 + 19 x_21 + 5 x_22 + 2 x_23
   + 14 x_24 + 22 x_25 + 15 x_26 + 5 x_27 + 3 x_28 + 10 x_29 + 24 x_30
   + x_31 + 19 x_32 + 8 x_33 + 12 x_34 + 11 x_35 + 6 x_36 + 23 x_37
   + 14 x_38 + 25 x_39 + 4 x_40 + 22 x_41 + 2 x_42 + 24 x_43 + 12 x_44
   + 9 x_45 + 11 x_46 + 11 x_47 + 24 x_48 + 22 x_49 + 21 x_50 <= 681
Bounds
Binaries
 x_1 x_2 x_3 x_4 x_5 x_6 x_7 x_8 x_9 x_10 x_11 x_12 x_13 x_14 x_15 x_16
 x_17 x_18 x_19 x_20 x_21 x_22 x_23 x_24 x_25 x_26 x_27 x_28 x_29 x_30 x_31
 x_32 x_33 x_34 x_35 x_36 x_37 x_38 x_39 x_40 x_41 x_42 x_43 x_44 x_45 x_46
 x_47 x_48 x_49 x_50
End
